
Log started (V11.0.0) Mon Apr 21 04:11:44 2008

Tried aggregator 1 time.
Reduced MIP has 540 rows, 20001 columns, and 40040 nonzeros.
Presolve time =    0.16 sec.
Clique table members: 500.
MIP emphasis: balance optimality and feasibility.
MIP search method: dynamic search.
Parallel mode: none, using 1 thread.
Root relaxation solution time =    0.81 sec.

        Nodes                                         Cuts/
   Node  Left     Objective  IInf  Best Integer     Best Node    ItCnt     Gap

*     0+    0                        28038.0000      148.2405      999   99.47%
*     0+    0                          158.0000      148.2405      999    6.18%
      0     0      149.0000    65      158.0000      Fract: 6     1008    5.70%
*     0+    0                          157.0000      149.0000     1008    5.10%
      0     0      149.0000    61      157.0000     Covers: 2     1023    5.10%
*     0+    0                          156.0000      149.0000     1023    4.49%
      0     0      149.0000    63      156.0000     Covers: 2     1041    4.49%
      0     0      149.0000    61      156.0000     Covers: 2     1075    4.49%
*     0+    0                          155.0000      149.0000     1075    3.87%
      0     2      149.0000    61      155.0000      149.0000     1075    3.87%
    100    81      150.0000    64      155.0000      149.0000    10112    3.87%
*   200+  173                          154.0000      149.0000    16860    3.25%
    200   175      150.0000    81      154.0000      149.0000    16860    3.25%
    300   251      151.0000    52      154.0000      149.0000    24806    3.25%
    400   320      151.0000    66      154.0000      149.0000    37516    3.25%
    500   393      152.3335    80      154.0000      149.0000    49598    3.25%
*   508+  264                          153.0000      149.0000    52752    2.61%
*   508+  176                          152.0000      149.0000    52752    1.97%
    600   207      149.0000    84      152.0000      149.0000    57241    1.97%
    700   221      151.0000    69      152.0000      149.0000    68573    1.97%
    800   252      151.0000    75      152.0000      149.0000    79047    1.97%
    900   346      149.0000    79      152.0000      149.0000    84406    1.97%
   1000   423      150.0000    71      152.0000      149.0000    90772    1.97%
Elapsed time = 150.19 sec. (tree size =  5.22 MB, solutions = 8)
   1100   494        cutoff            152.0000      149.0000   101764    1.97%
   1200   586      151.0000    55      152.0000      149.0000   108624    1.97%
   1300   668      151.0000    75      152.0000      149.0000   118656    1.97%
   1400   728      151.0000    73      152.0000      149.0000   136021    1.97%
   1500   802      151.0000    77      152.0000      149.0000   150148    1.97%
   1600   887      150.0000    70      152.0000      149.0000   158108    1.97%
   1700   974      151.0000    83      152.0000      149.0000   163445    1.97%
   1800  1066      149.0000    95      152.0000      149.0000   168025    1.97%
   1900  1144        cutoff            152.0000      149.0000   178478    1.97%
   2000  1238      150.0000    72      152.0000      149.0000   184672    1.97%
Elapsed time = 240.08 sec. (tree size = 17.12 MB, solutions = 8)
*  2008+  764                          151.0000      149.0000   186092    1.32%
   2100   839      149.0000    93      151.0000      149.0000   194109    1.32%
   2200   928      149.0000   105      151.0000      149.0000   200205    1.32%
   2300  1025      150.0000    69      151.0000      149.0000   206023    1.32%
   2400  1109      150.0000    90      151.0000      149.0000   218813    1.32%
   2500  1181      149.0000    96      151.0000      149.0000   231008    1.32%
   2600  1280      150.0000    91      151.0000      149.0000   234559    1.32%
   2700  1372      149.0000    95      151.0000      149.0000   241401    1.32%
   2800  1465      150.0000    61      151.0000      149.0000   247054    1.32%
   2900  1561      149.0000   118      151.0000      149.0000   253208    1.32%
   3000  1660      150.0000    87      151.0000      149.0000   257884    1.32%
Elapsed time = 343.31 sec. (tree size = 24.43 MB, solutions = 9)
   3100  1751      150.0000    85      151.0000      149.0000   263918    1.32%
   3200  1833      149.0000   109      151.0000      149.0000   271697    1.32%
   3300  1924      150.0000    59      151.0000      149.0000   280379    1.32%
   3400  2020      149.0000   114      151.0000      149.0000   286434    1.32%
   3500  2119      149.0000   117      151.0000      149.0000   292751    1.32%
   3600  2217      150.0000    78      151.0000      149.0000   297984    1.32%
   3700  2309      149.0000   107      151.0000      149.0000   303755    1.32%
   3800  2392      149.0000    97      151.0000      149.0000   312914    1.32%
   3900  2492      150.0000    60      151.0000      149.0000   317553    1.32%
   4000  2592      150.0000    74      151.0000      149.0000   321232    1.32%
Elapsed time = 419.69 sec. (tree size = 40.28 MB, solutions = 9)
   4100  2692      150.0000    87      151.0000      149.0000   326706    1.32%
   4200  2791      150.0000    67      151.0000      149.0000   332711    1.32%
   4300  2887      149.0000   135      151.0000      149.0000   339412    1.32%
   4400  2980      150.0000    84      151.0000      149.0000   346556    1.32%
   4500  3068      150.0000    85      151.0000      149.0000   358320    1.32%
   4600  3167      150.0000   103      151.0000      149.0000   365429    1.32%
   4700  3261      149.0000   129      151.0000      149.0000   372257    1.32%
   4800  3352      149.0000   141      151.0000      149.0000   380274    1.32%
   4900  3451      150.0000   106      151.0000      149.0000   385185    1.32%
   5000  3541      149.0000   108      151.0000      149.0000   393338    1.32%
Elapsed time = 505.95 sec. (tree size = 57.47 MB, solutions = 9)
   5100  3636      150.0000    94      151.0000      149.0000   399756    1.32%
   5200  3728      149.0000   119      151.0000      149.0000   408959    1.32%
   5300  3826      150.0000    81      151.0000      149.0000   412826    1.32%
   5400  3926      150.0000    84      151.0000      149.0000   419568    1.32%
   5500  4012      149.0000   142      151.0000      149.0000   429806    1.32%
   5600  4107      149.0000   132      151.0000      149.0000   437430    1.32%
   5700  4202      149.0000   186      151.0000      149.0000   445819    1.32%
   5800  4298      149.0331   144      151.0000      149.0000   453673    1.32%
   5900  4397      150.0000    98      151.0000      149.0000   459045    1.32%
   6000  4482      150.0000    88      151.0000      149.0000   468939    1.32%
Elapsed time = 596.02 sec. (tree size = 75.89 MB, solutions = 9)
   6100  4575      150.0000   122      151.0000      149.0000   476264    1.32%
   6200  4666      150.0000   102      151.0000      149.0000   488075    1.32%
   6300  4759      150.0000   108      151.0000      149.0000   498800    1.32%
   6400  4849      149.0000   120      151.0000      149.0000   512058    1.32%
   6500  4948      150.0000    86      151.0000      149.0000   518427    1.32%
   6600  5042      149.0000   132      151.0000      149.0000   529461    1.32%
   6700  5127      149.0000   166      151.0000      149.0000   544305    1.32%
   6800  5224      150.0000    94      151.0000      149.0000   551980    1.32%
   6900  5314    infeasible            151.0000      149.0000   561646    1.32%
   7000  5407      150.0000    62      151.0000      149.0000   570609    1.32%
Elapsed time = 724.28 sec. (tree size = 97.01 MB, solutions = 9)
   7100  5499    infeasible            151.0000      149.0000   581943    1.32%
   7200  5592      150.0000    79      151.0000      149.0000   590935    1.32%
   7300  5692      150.0000    98      151.0000      149.0000   593674    1.32%
   7400  5792      150.0000    91      151.0000      149.0000   598253    1.32%
   7500  5886    infeasible            151.0000      149.0000   606514    1.32%
   7600  5985      150.0000   143      151.0000      149.0000   612754    1.32%
   7700  6070      150.0000    80      151.0000      149.0000   624401    1.32%
   7800  6160      149.0000   161      151.0000      149.0000   636388    1.32%
   7900  6259      150.0000    88      151.0000      149.0000   641935    1.32%
   8000  6359      150.0000   100      151.0000      149.0000   650373    1.32%
Elapsed time = 836.70 sec. (tree size = 119.56 MB, solutions = 9)
   8100  6447      149.0000   171      151.0000      149.0000   662106    1.32%
   8200  6538      149.0000   160      151.0000      149.0000   670737    1.32%
   8300  6637      150.0000   102      151.0000      149.0000   677938    1.32%
   8400  6722      150.0000    76      151.0000      149.0000   691404    1.32%
   8500  6818      149.0000   174      151.0000      149.0000   698156    1.32%
   8600  6916      150.0000    74      151.0000      149.0000   707247    1.32%
   8700  7016      150.0000    91      151.0000      149.0000   712461    1.32%
   8800  7104      150.0000   107      151.0000      149.0000   724772    1.32%
   8900  7200      149.0000   110      151.0000      149.0000   734779    1.32%
   9000  7298      150.0000    82      151.0000      149.0000   741663    1.32%
Elapsed time = 982.41 sec. (tree size = 142.54 MB, solutions = 9)
Nodefile size = 14.82 MB (12.06 MB after compression)
   9100  7387      150.0000   107      151.0000      149.0000   755534    1.32%
   9200  7482      150.0000    78      151.0000      149.0000   763394    1.32%
   9300  7580      150.0000   130      151.0000      149.0000   768283    1.32%
   9400  7671      150.0000   111      151.0000      149.0000   777346    1.32%
   9500  7769      150.0000   108      151.0000      149.0000   788040    1.32%
   9600  7856      150.0000   117      151.0000      149.0000   799345    1.32%
   9700  7952      149.0000   106      151.0000      149.0000   807327    1.32%
   9800  8049      150.0000    68      151.0000      149.0000   814475    1.32%
   9900  8145      150.0000    96      151.0000      149.0000   824955    1.32%
  10000  8234      150.0000   105      151.0000      149.0000   836008    1.32%
Elapsed time = 1122.25 sec. (tree size = 166.28 MB, solutions = 9)
Nodefile size = 38.48 MB (31.50 MB after compression)
  10100  8325      149.0000   142      151.0000      149.0000   849471    1.32%
  10200  8421      150.0000    94      151.0000      149.0000   855432    1.32%
  10300  8521      150.0000    88      151.0000      149.0000   864063    1.32%
  10400  8600      150.0000   149      151.0000      149.0000   880775    1.32%
  10500  8700      150.0000   140      151.0000      149.0000   884139    1.32%
  10600  8793      150.0000   138      151.0000      149.0000   894021    1.32%
  10700  8880      150.0000   110      151.0000      149.0000   906866    1.32%
  10800  8963      150.0000   215      151.0000      149.0000   923769    1.32%
  10900  9063      150.0000    91      151.0000      149.0000   932134    1.32%
  11000  9148      150.0000   158      151.0000      149.0000   948191    1.32%
Elapsed time = 1284.31 sec. (tree size = 190.28 MB, solutions = 9)
Nodefile size = 63.10 MB (51.71 MB after compression)
  11100  9248      150.0000   120      151.0000      149.0000   952696    1.32%
  11200  9335      150.0000    98      151.0000      149.0000   966117    1.32%
  11300  9435      150.0000   126      151.0000      149.0000   970745    1.32%
  11400  9524      150.0000   104      151.0000      149.0000   979477    1.32%
  11500  9618      149.0000   166      151.0000      149.0000   989599    1.32%
* 11508+ 3262                          150.0000      149.0000   991267    0.67%
  11600  3332      149.0000   169      150.0000      149.0000  1020864    0.67%
  11700  3412      149.0000   186      150.0000      149.0000  1063255    0.67%
  11800  3502      149.0000   197      150.0000      149.0000  1081865    0.67%
  11900  3552    infeasible            150.0000      149.0000  1169657    0.67%
  12000  3532      149.0000   175      150.0000      149.0000  1433875    0.67%
Elapsed time = 2086.75 sec. (tree size = 68.38 MB, solutions = 10)
  12100  3586    infeasible            150.0000      149.0000  1517490    0.67%
  12200  3486    infeasible            150.0000      149.0000  1919418    0.67%
  12300  3408    infeasible            150.0000      149.0000  2316977    0.67%
  12400  3308    infeasible            150.0000      149.0000  2757042    0.67%
  12500  3282      149.0000   154      150.0000      149.0000  3020187    0.67%
  12600  3296    infeasible            150.0000      149.0000  3223711    0.67%
  12700  3236    infeasible            150.0000      149.0000  3586601    0.67%
  12800  3188    infeasible            150.0000      149.0000  3918252    0.67%
  12900  3210      149.0000   316      150.0000      149.0000  4084156    0.67%

Cover cuts applied:  1816
Gomory fractional cuts applied:  5

Solution pool: 10 solutions saved.

MIP - Time limit exceeded, integer feasible:  Objective = 1.5000000000e+002
Current MIP best bound = 1.4900000000e+002 (gap = 1, 0.67%)
Solution time = 7200.11 sec.  Iterations = 4322708  Nodes = 12968 (3173)


Incumbent solution
Variable Name           Solution Value
Cmax                        150.000000
X_1_37                        1.000000
X_2_7                         1.000000
X_3_38                        1.000000
X_4_8                         1.000000
X_5_34                        1.000000
X_6_11                        1.000000
X_7_20                        1.000000
X_8_32                        1.000000
X_9_8                         1.000000
X_10_7                        1.000000
X_11_25                       1.000000
X_12_21                       1.000000
X_13_25                       1.000000
X_14_16                       1.000000
X_15_20                       1.000000
X_16_25                       1.000000
X_17_24                       1.000000
X_18_29                       1.000000
X_19_3                        1.000000
X_20_3                        1.000000
X_21_39                       1.000000
X_22_27                       1.000000
X_23_16                       1.000000
X_24_33                       1.000000
X_25_39                       1.000000
X_26_26                       1.000000
X_27_17                       1.000000
X_28_37                       1.000000
X_29_10                       1.000000
X_30_17                       1.000000
X_31_1                        1.000000
X_32_26                       1.000000
X_33_22                       1.000000
X_34_20                       1.000000
X_35_21                       1.000000
X_36_15                       1.000000
X_37_19                       1.000000
X_38_15                       1.000000
X_39_28                       1.000000
X_40_19                       1.000000
X_41_39                       1.000000
X_42_18                       1.000000
X_43_11                       1.000000
X_44_6                        1.000000
X_45_20                       1.000000
X_46_29                       1.000000
X_47_39                       1.000000
X_48_1                        1.000000
X_49_30                       1.000000
X_50_31                       1.000000
X_51_31                       1.000000
X_52_10                       1.000000
X_53_22                       1.000000
X_54_7                        1.000000
X_55_40                       1.000000
X_56_37                       1.000000
X_57_3                        1.000000
X_58_14                       1.000000
X_59_28                       1.000000
X_60_21                       1.000000
X_61_18                       1.000000
X_62_35                       1.000000
X_63_36                       1.000000
X_64_16                       1.000000
X_65_2                        1.000000
X_66_16                       1.000000
X_67_22                       1.000000
X_68_38                       1.000000
X_69_30                       1.000000
X_70_36                       1.000000
X_71_5                        1.000000
X_72_7                        1.000000
X_73_23                       1.000000
X_74_10                       1.000000
X_75_5                        1.000000
X_76_21                       1.000000
X_77_37                       1.000000
X_78_18                       1.000000
X_79_36                       1.000000
X_80_16                       1.000000
X_81_6                        1.000000
X_82_40                       1.000000
X_83_3                        1.000000
X_84_13                       1.000000
X_85_8                        1.000000
X_86_19                       1.000000
X_87_27                       1.000000
X_88_21                       1.000000
X_89_24                       1.000000
X_90_39                       1.000000
X_91_1                        1.000000
X_92_24                       1.000000
X_93_9                        1.000000
X_94_33                       1.000000
X_95_39                       1.000000
X_96_28                       1.000000
X_97_9                        1.000000
X_98_33                       1.000000
X_99_4                        1.000000
X_100_3                       1.000000
X_101_31                      1.000000
X_102_33                      1.000000
X_103_34                      1.000000
X_104_25                      1.000000
X_105_1                       1.000000
X_106_30                      1.000000
X_107_32                      1.000000
X_108_20                      1.000000
X_109_19                      1.000000
X_110_4                       1.000000
X_111_3                       1.000000
X_112_4                       1.000000
X_113_26                      1.000000
X_114_25                      1.000000
X_115_5                       1.000000
X_116_27                      1.000000
X_117_36                      1.000000
X_118_4                       1.000000
X_119_8                       1.000000
X_120_1                       1.000000
X_121_10                      1.000000
X_122_39                      1.000000
X_123_31                      1.000000
X_124_19                      1.000000
X_125_40                      1.000000
X_126_4                       1.000000
X_127_20                      1.000000
X_128_19                      1.000000
X_129_35                      1.000000
X_130_21                      1.000000
X_131_25                      1.000000
X_132_24                      1.000000
X_133_25                      1.000000
X_134_1                       1.000000
X_135_28                      1.000000
X_136_29                      1.000000
X_137_22                      1.000000
X_138_9                       1.000000
X_139_33                      1.000000
X_140_5                       1.000000
X_141_40                      1.000000
X_142_26                      1.000000
X_143_36                      1.000000
X_144_13                      1.000000
X_145_17                      1.000000
X_146_3                       1.000000
X_147_22                      1.000000
X_148_24                      1.000000
X_149_19                      1.000000
X_150_18                      1.000000
X_151_15                      1.000000
X_152_2                       1.000000
X_153_35                      1.000000
X_154_19                      1.000000
X_155_5                       1.000000
X_156_18                      1.000000
X_157_10                      1.000000
X_158_22                      1.000000
X_159_14                      1.000000
X_160_9                       1.000000
X_161_13                      1.000000
X_162_28                      1.000000
X_163_26                      1.000000
X_164_40                      1.000000
X_165_33                      1.000000
X_166_23                      1.000000
X_167_25                      1.000000
X_168_11                      1.000000
X_169_31                      1.000000
X_170_23                      1.000000
X_171_14                      1.000000
X_172_13                      1.000000
X_173_35                      1.000000
X_174_35                      1.000000
X_175_12                      1.000000
X_176_27                      1.000000
X_177_39                      1.000000
X_178_33                      1.000000
X_179_38                      1.000000
X_180_28                      1.000000
X_181_11                      1.000000
X_182_36                      1.000000
X_183_2                       1.000000
X_184_4                       1.000000
X_185_22                      1.000000
X_186_33                      1.000000
X_187_11                      1.000000
X_188_31                      1.000000
X_189_36                      1.000000
X_190_3                       1.000000
X_191_32                      1.000000
X_192_36                      1.000000
X_193_8                       1.000000
X_194_2                       1.000000
X_195_26                      1.000000
X_196_37                      1.000000
X_197_24                      1.000000
X_198_31                      1.000000
X_199_24                      1.000000
X_200_11                      1.000000
X_201_30                      1.000000
X_202_29                      1.000000
X_203_39                      1.000000
X_204_40                      1.000000
X_205_1                       1.000000
X_206_7                       1.000000
X_207_2                       1.000000
X_208_15                      1.000000
X_209_21                      1.000000
X_210_13                      1.000000
X_211_37                      1.000000
X_212_17                      1.000000
X_213_37                      1.000000
X_214_26                      1.000000
X_215_26                      1.000000
X_216_27                      1.000000
X_217_30                      1.000000
X_218_28                      1.000000
X_219_39                      1.000000
X_220_4                       1.000000
X_221_40                      1.000000
X_222_6                       1.000000
X_223_9                       1.000000
X_224_6                       1.000000
X_225_9                       1.000000
X_226_25                      1.000000
X_227_1                       1.000000
X_228_23                      1.000000
X_229_32                      1.000000
X_230_23                      1.000000
X_231_19                      1.000000
X_232_16                      1.000000
X_233_14                      1.000000
X_234_27                      1.000000
X_235_2                       1.000000
X_236_14                      1.000000
X_237_23                      1.000000
X_238_30                      1.000000
X_239_32                      1.000000
X_240_8                       1.000000
X_241_14                      1.000000
X_242_38                      1.000000
X_243_36                      1.000000
X_244_35                      1.000000
X_245_7                       1.000000
X_246_23                      1.000000
X_247_37                      1.000000
X_248_2                       1.000000
X_249_28                      1.000000
X_250_12                      1.000000
X_251_1                       1.000000
X_252_11                      1.000000
X_253_11                      1.000000
X_254_31                      1.000000
X_255_27                      1.000000
X_256_10                      1.000000
X_257_32                      1.000000
X_258_5                       1.000000
X_259_27                      1.000000
X_260_37                      1.000000
X_261_39                      1.000000
X_262_7                       1.000000
X_263_5                       1.000000
X_264_16                      1.000000
X_265_30                      1.000000
X_266_20                      1.000000
X_267_8                       1.000000
X_268_18                      1.000000
X_269_21                      1.000000
X_270_22                      1.000000
X_271_31                      1.000000
X_272_7                       1.000000
X_273_29                      1.000000
X_274_13                      1.000000
X_275_20                      1.000000
X_276_12                      1.000000
X_277_28                      1.000000
X_278_11                      1.000000
X_279_2                       1.000000
X_280_20                      1.000000
X_281_27                      1.000000
X_282_5                       1.000000
X_283_8                       1.000000
X_284_19                      1.000000
X_285_36                      1.000000
X_286_5                       1.000000
X_287_21                      1.000000
X_288_36                      1.000000
X_289_32                      1.000000
X_290_8                       1.000000
X_291_1                       1.000000
X_292_23                      1.000000
X_293_20                      1.000000
X_294_14                      1.000000
X_295_28                      1.000000
X_296_15                      1.000000
X_297_24                      1.000000
X_298_16                      1.000000
X_299_3                       1.000000
X_300_2                       1.000000
X_301_36                      1.000000
X_302_14                      1.000000
X_303_24                      1.000000
X_304_36                      1.000000
X_305_20                      1.000000
X_306_7                       1.000000
X_307_37                      1.000000
X_308_33                      1.000000
X_309_11                      1.000000
X_310_29                      1.000000
X_311_18                      1.000000
X_312_15                      1.000000
X_313_34                      1.000000
X_314_5                       1.000000
X_315_7                       1.000000
X_316_40                      1.000000
X_317_35                      1.000000
X_318_17                      1.000000
X_319_13                      1.000000
X_320_16                      1.000000
X_321_3                       1.000000
X_322_6                       1.000000
X_323_34                      1.000000
X_324_21                      1.000000
X_325_6                       1.000000
X_326_12                      1.000000
X_327_40                      1.000000
X_328_30                      1.000000
X_329_13                      1.000000
X_330_26                      1.000000
X_331_8                       1.000000
X_332_9                       1.000000
X_333_19                      1.000000
X_334_15                      1.000000
X_335_30                      1.000000
X_336_10                      1.000000
X_337_35                      1.000000
X_338_1                       1.000000
X_339_34                      1.000000
X_340_12                      1.000000
X_341_7                       1.000000
X_342_2                       1.000000
X_343_38                      1.000000
X_344_26                      1.000000
X_345_17                      1.000000
X_346_6                       1.000000
X_347_30                      1.000000
X_348_38                      1.000000
X_349_37                      1.000000
X_350_24                      1.000000
X_351_27                      1.000000
X_352_38                      1.000000
X_353_1                       1.000000
X_354_9                       1.000000
X_355_25                      1.000000
X_356_8                       1.000000
X_357_34                      1.000000
X_358_15                      1.000000
X_359_10                      1.000000
X_360_29                      1.000000
X_361_24                      1.000000
X_362_21                      1.000000
X_363_15                      1.000000
X_364_26                      1.000000
X_365_8                       1.000000
X_366_17                      1.000000
X_367_2                       1.000000
X_368_4                       1.000000
X_369_4                       1.000000
X_370_3                       1.000000
X_371_24                      1.000000
X_372_13                      1.000000
X_373_34                      1.000000
X_374_28                      1.000000
X_375_19                      1.000000
X_376_14                      1.000000
X_377_1                       1.000000
X_378_39                      1.000000
X_379_25                      1.000000
X_380_15                      1.000000
X_381_35                      1.000000
X_382_3                       1.000000
X_383_23                      1.000000
X_384_2                       1.000000
X_385_33                      1.000000
X_386_20                      1.000000
X_387_10                      1.000000
X_388_6                       1.000000
X_389_3                       1.000000
X_390_15                      1.000000
X_391_32                      1.000000
X_392_22                      1.000000
X_393_28                      1.000000
X_394_34                      1.000000
X_395_12                      1.000000
X_396_11                      1.000000
X_397_35                      1.000000
X_398_14                      1.000000
X_399_38                      1.000000
X_400_6                       1.000000
X_401_17                      1.000000
X_402_16                      1.000000
X_403_22                      1.000000
X_404_10                      1.000000
X_405_29                      1.000000
X_406_32                      1.000000
X_407_32                      1.000000
X_408_18                      1.000000
X_409_34                      1.000000
X_410_29                      1.000000
X_411_12                      1.000000
X_412_29                      1.000000
X_413_5                       1.000000
X_414_18                      1.000000
X_415_40                      1.000000
X_416_31                      1.000000
X_417_9                       1.000000
X_418_38                      1.000000
X_419_36                      1.000000
X_420_35                      1.000000
X_421_19                      1.000000
X_422_27                      1.000000
X_423_16                      1.000000
X_424_23                      1.000000
X_425_7                       1.000000
X_426_6                       1.000000
X_427_24                      1.000000
X_428_30                      1.000000
X_429_38                      1.000000
X_430_12                      1.000000
X_431_17                      1.000000
X_432_11                      1.000000
X_433_4                       1.000000
X_434_33                      1.000000
X_435_32                      1.000000
X_436_13                      1.000000
X_437_33                      1.000000
X_438_34                      1.000000
X_439_34                      1.000000
X_440_5                       1.000000
X_441_26                      1.000000
X_442_25                      1.000000
X_443_40                      1.000000
X_444_39                      1.000000
X_445_34                      1.000000
X_446_17                      1.000000
X_447_4                       1.000000
X_448_20                      1.000000
X_449_29                      1.000000
X_450_29                      1.000000
X_451_5                       1.000000
X_452_13                      1.000000
X_453_30                      1.000000
X_454_11                      1.000000
X_455_12                      1.000000
X_456_21                      1.000000
X_457_10                      1.000000
X_458_37                      1.000000
X_459_26                      1.000000
X_460_23                      1.000000
X_461_29                      1.000000
X_462_34                      1.000000
X_463_12                      1.000000
X_464_7                       1.000000
X_465_40                      1.000000
X_466_16                      1.000000
X_467_15                      1.000000
X_468_13                      1.000000
X_469_9                       1.000000
X_470_17                      1.000000
X_471_18                      1.000000
X_472_27                      1.000000
X_473_31                      1.000000
X_474_4                       1.000000
X_475_22                      1.000000
X_476_25                      1.000000
X_477_22                      1.000000
X_478_6                       1.000000
X_479_12                      1.000000
X_480_12                      1.000000
X_481_14                      1.000000
X_482_14                      1.000000
X_483_13                      1.000000
X_484_23                      1.000000
X_485_32                      1.000000
X_486_18                      1.000000
X_487_17                      1.000000
X_488_32                      1.000000
X_489_10                      1.000000
X_490_30                      1.000000
X_491_27                      1.000000
X_492_6                       1.000000
X_493_38                      1.000000
X_494_16                      1.000000
X_495_18                      1.000000
X_496_9                       1.000000
X_497_35                      1.000000
X_498_9                       1.000000
X_499_23                      1.000000
X_500_38                      1.000000
All other variables in the range 1-20001 are 0.
